191587.0
2257
0 4 5 6 7 9 12 13 14 17 18 22 23 26 27 29 30 33 34 35 37 38 39 40 41 43 45 48 49 51 57 63 64 65 66 69 70 71 72 74 76 77 78 79 80 81 84 85 93 95 97 98 100 104 107 108 111 112 115 116 118 119 122 123 125 127 128 129 130 131 133 134 139 144 145 146 151 154 155 156 161 164 166 167 169 170 172 173 175 176 177 179 182 188 192 193 194 195 196 197 